(set-logic HORN)
(declare-datatypes ((Bool_305 0)) (((false_305 ) (true_305 ))))
(declare-fun diseqBool_142 (Bool_305 Bool_305) Bool)
(declare-fun isfalse_142 (Bool_305) Bool)
(declare-fun istrue_142 (Bool_305) Bool)
(assert (isfalse_142 false_305))
(assert (istrue_142 true_305))
(assert (diseqBool_142 false_305 true_305))
(assert (diseqBool_142 true_305 false_305))
(declare-fun and_305 (Bool_305 Bool_305 Bool_305) Bool)
(declare-fun or_312 (Bool_305 Bool_305 Bool_305) Bool)
(declare-fun hence_305 (Bool_305 Bool_305 Bool_305) Bool)
(declare-fun not_310 (Bool_305 Bool_305) Bool)
(assert (and_305 false_305 false_305 false_305))
(assert (and_305 false_305 true_305 false_305))
(assert (and_305 false_305 false_305 true_305))
(assert (and_305 true_305 true_305 true_305))
(assert (or_312 false_305 false_305 false_305))
(assert (or_312 true_305 true_305 false_305))
(assert (or_312 true_305 false_305 true_305))
(assert (or_312 true_305 true_305 true_305))
(assert (hence_305 true_305 false_305 false_305))
(assert (hence_305 false_305 true_305 false_305))
(assert (hence_305 true_305 false_305 true_305))
(assert (hence_305 true_305 true_305 true_305))
(assert (not_310 true_305 false_305))
(assert (not_310 false_305 true_305))
(declare-datatypes ((Nat_514 0)) (((zero_140 ) (succ_136 (p_381 Nat_514)))))
(declare-fun diseqNat_514 (Nat_514 Nat_514) Bool)
(declare-fun p_382 (Nat_514 Nat_514) Bool)
(declare-fun iszero_136 (Nat_514) Bool)
(declare-fun issucc_136 (Nat_514) Bool)
(assert (forall ((x_53352 Nat_514))
	(p_382 x_53352 (succ_136 x_53352))))
(assert (iszero_136 zero_140))
(assert (forall ((x_53354 Nat_514))
	(issucc_136 (succ_136 x_53354))))
(assert (forall ((x_53355 Nat_514))
	(diseqNat_514 zero_140 (succ_136 x_53355))))
(assert (forall ((x_53356 Nat_514))
	(diseqNat_514 (succ_136 x_53356) zero_140)))
(assert (forall ((x_53357 Nat_514) (x_53358 Nat_514))
	(=> (diseqNat_514 x_53357 x_53358)
	    (diseqNat_514 (succ_136 x_53357) (succ_136 x_53358)))))
(declare-datatypes ((list_216 0)) (((nil_244 ) (cons_216 (head_432 Nat_514) (tail_432 list_216)))))
(declare-fun diseqlist_216 (list_216 list_216) Bool)
(declare-fun head_433 (Nat_514 list_216) Bool)
(declare-fun tail_433 (list_216 list_216) Bool)
(declare-fun isnil_244 (list_216) Bool)
(declare-fun iscons_216 (list_216) Bool)
(assert (forall ((x_53360 Nat_514) (x_53361 list_216))
	(head_433 x_53360 (cons_216 x_53360 x_53361))))
(assert (forall ((x_53360 Nat_514) (x_53361 list_216))
	(tail_433 x_53361 (cons_216 x_53360 x_53361))))
(assert (isnil_244 nil_244))
(assert (forall ((x_53363 Nat_514) (x_53364 list_216))
	(iscons_216 (cons_216 x_53363 x_53364))))
(assert (forall ((x_53365 Nat_514) (x_53366 list_216))
	(diseqlist_216 nil_244 (cons_216 x_53365 x_53366))))
(assert (forall ((x_53367 Nat_514) (x_53368 list_216))
	(diseqlist_216 (cons_216 x_53367 x_53368) nil_244)))
(assert (forall ((x_53369 Nat_514) (x_53370 list_216) (x_53371 Nat_514) (x_53372 list_216))
	(=> (diseqNat_514 x_53369 x_53371)
	    (diseqlist_216 (cons_216 x_53369 x_53370) (cons_216 x_53371 x_53372)))))
(assert (forall ((x_53369 Nat_514) (x_53370 list_216) (x_53371 Nat_514) (x_53372 list_216))
	(=> (diseqlist_216 x_53370 x_53372)
	    (diseqlist_216 (cons_216 x_53369 x_53370) (cons_216 x_53371 x_53372)))))
(declare-fun take_50 (list_216 Nat_514 list_216) Bool)
(assert (forall ((x_53281 list_216) (z_1852 Nat_514) (xs_598 list_216) (z_1851 Nat_514))
	(=> (take_50 x_53281 z_1851 xs_598)
	    (take_50 (cons_216 z_1852 x_53281) (succ_136 z_1851) (cons_216 z_1852 xs_598)))))
(assert (forall ((z_1851 Nat_514))
	(take_50 nil_244 (succ_136 z_1851) nil_244)))
(assert (forall ((y_2082 list_216))
	(take_50 nil_244 zero_140 y_2082)))
(declare-fun plus_133 (Nat_514 Nat_514 Nat_514) Bool)
(assert (forall ((x_53285 Nat_514) (z_1853 Nat_514) (y_2083 Nat_514))
	(=> (plus_133 x_53285 z_1853 y_2083)
	    (plus_133 (succ_136 x_53285) (succ_136 z_1853) y_2083))))
(assert (forall ((x_53286 Nat_514))
	(plus_133 x_53286 zero_140 x_53286)))
(declare-fun minus_325 (Nat_514 Nat_514 Nat_514) Bool)
(assert (forall ((x_53287 Nat_514) (y_2085 Nat_514) (z_1854 Nat_514))
	(=> (minus_325 x_53287 z_1854 y_2085)
	    (minus_325 x_53287 (succ_136 z_1854) (succ_136 y_2085)))))
(assert (forall ((z_1854 Nat_514))
	(minus_325 zero_140 (succ_136 z_1854) zero_140)))
(assert (forall ((y_2084 Nat_514))
	(minus_325 zero_140 zero_140 y_2084)))
(declare-fun lt_324 (Bool_305 Nat_514 Nat_514) Bool)
(assert (forall ((x_53291 Bool_305) (n_107 Nat_514) (z_1855 Nat_514))
	(=> (lt_324 x_53291 n_107 z_1855)
	    (lt_324 x_53291 (succ_136 n_107) (succ_136 z_1855)))))
(assert (forall ((z_1855 Nat_514))
	(lt_324 true_305 zero_140 (succ_136 z_1855))))
(assert (forall ((x_53261 Nat_514))
	(lt_324 false_305 x_53261 zero_140)))
(declare-fun leq_53 (Bool_305 Nat_514 Nat_514) Bool)
(assert (forall ((x_53295 Bool_305) (x_53263 Nat_514) (z_1856 Nat_514))
	(=> (leq_53 x_53295 z_1856 x_53263)
	    (leq_53 x_53295 (succ_136 z_1856) (succ_136 x_53263)))))
(assert (forall ((z_1856 Nat_514))
	(leq_53 false_305 (succ_136 z_1856) zero_140)))
(assert (forall ((y_2087 Nat_514))
	(leq_53 true_305 zero_140 y_2087)))
(declare-fun lmerge_17 (list_216 list_216 list_216) Bool)
(assert (forall ((x_53301 list_216) (x_53266 Nat_514) (x_53267 list_216) (z_1857 Nat_514) (x_53265 list_216))
	(=>	(and (lmerge_17 x_53301 x_53265 (cons_216 x_53266 x_53267))
			(leq_53 true_305 z_1857 x_53266))
		(lmerge_17 (cons_216 z_1857 x_53301) (cons_216 z_1857 x_53265) (cons_216 x_53266 x_53267)))))
(assert (forall ((x_53304 list_216) (x_53266 Nat_514) (x_53267 list_216) (z_1857 Nat_514) (x_53265 list_216))
	(=>	(and (lmerge_17 x_53304 (cons_216 z_1857 x_53265) x_53267)
			(leq_53 false_305 z_1857 x_53266))
		(lmerge_17 (cons_216 x_53266 x_53304) (cons_216 z_1857 x_53265) (cons_216 x_53266 x_53267)))))
(assert (forall ((z_1857 Nat_514) (x_53265 list_216))
	(lmerge_17 (cons_216 z_1857 x_53265) (cons_216 z_1857 x_53265) nil_244)))
(assert (forall ((x_53306 list_216))
	(lmerge_17 x_53306 nil_244 x_53306)))
(declare-fun length_40 (Nat_514 list_216) Bool)
(assert (forall ((x_53307 Nat_514) (x_53308 Nat_514) (y_2089 Nat_514) (l_42 list_216))
	(=>	(and (length_40 x_53308 l_42)
			(plus_133 x_53307 (succ_136 zero_140) x_53308))
		(length_40 x_53307 (cons_216 y_2089 l_42)))))
(assert (length_40 zero_140 nil_244))
(declare-fun idiv_8 (Nat_514 Nat_514 Nat_514) Bool)
(assert (forall ((x_53269 Nat_514) (y_2090 Nat_514))
	(=> (lt_324 true_305 x_53269 y_2090)
	    (idiv_8 zero_140 x_53269 y_2090))))
(assert (forall ((x_53315 Nat_514) (x_53316 Nat_514) (x_53269 Nat_514) (y_2090 Nat_514))
	(=>	(and (minus_325 x_53315 x_53269 y_2090)
			(idiv_8 x_53316 x_53315 y_2090)
			(lt_324 false_305 x_53269 y_2090))
		(idiv_8 (succ_136 x_53316) x_53269 y_2090))))
(declare-fun drop_52 (list_216 Nat_514 list_216) Bool)
(assert (forall ((x_53317 list_216) (z_1859 Nat_514) (xs_599 list_216) (z_1858 Nat_514))
	(=> (drop_52 x_53317 z_1858 xs_599)
	    (drop_52 x_53317 (succ_136 z_1858) (cons_216 z_1859 xs_599)))))
(assert (forall ((z_1858 Nat_514))
	(drop_52 nil_244 (succ_136 z_1858) nil_244)))
(assert (forall ((x_53320 list_216))
	(drop_52 x_53320 zero_140 x_53320)))
(declare-fun msorttd_5 (list_216 list_216) Bool)
(assert (forall ((x_53323 list_216) (x_53324 list_216) (x_53325 list_216) (x_53326 list_216) (x_53327 list_216) (x_53321 Nat_514) (k_14 Nat_514) (x_53272 Nat_514) (x_53273 list_216) (y_2092 Nat_514))
	(=>	(and (take_50 x_53324 k_14 (cons_216 y_2092 (cons_216 x_53272 x_53273)))
			(msorttd_5 x_53325 x_53324)
			(drop_52 x_53326 k_14 (cons_216 y_2092 (cons_216 x_53272 x_53273)))
			(msorttd_5 x_53327 x_53326)
			(lmerge_17 x_53323 x_53325 x_53327)
			(length_40 x_53321 (cons_216 y_2092 (cons_216 x_53272 x_53273)))
			(idiv_8 k_14 x_53321 (succ_136 (succ_136 zero_140))))
		(msorttd_5 x_53323 (cons_216 y_2092 (cons_216 x_53272 x_53273))))))
(assert (forall ((y_2092 Nat_514))
	(msorttd_5 (cons_216 y_2092 nil_244) (cons_216 y_2092 nil_244))))
(assert (msorttd_5 nil_244 nil_244))
(declare-fun count_35 (Nat_514 Nat_514 list_216) Bool)
(assert (forall ((x_53331 Nat_514) (x_53332 Nat_514) (ys_198 list_216) (x_53274 Nat_514))
	(=>	(and (count_35 x_53332 x_53274 ys_198)
			(plus_133 x_53331 (succ_136 zero_140) x_53332))
		(count_35 x_53331 x_53274 (cons_216 x_53274 ys_198)))))
(assert (forall ((x_53334 Nat_514) (z_1861 Nat_514) (ys_198 list_216) (x_53274 Nat_514))
	(=>	(and (diseqNat_514 x_53274 z_1861)
			(count_35 x_53334 x_53274 ys_198))
		(count_35 x_53334 x_53274 (cons_216 z_1861 ys_198)))))
(assert (forall ((x_53274 Nat_514))
	(count_35 zero_140 x_53274 nil_244)))
(assert (forall ((x_53337 Nat_514) (x_53338 Nat_514) (x_53339 Nat_514) (x_53340 Nat_514) (x_53275 Nat_514) (y_2094 Nat_514) (z_1862 Nat_514))
	(=>	(and true
			(diseqNat_514 x_53338 x_53340)
			(plus_133 x_53337 y_2094 z_1862)
			(plus_133 x_53338 x_53275 x_53337)
			(plus_133 x_53339 x_53275 y_2094)
			(plus_133 x_53340 x_53339 z_1862))
		false)))
(assert (forall ((x_53341 Nat_514) (x_53342 Nat_514) (x_53276 Nat_514) (y_2095 Nat_514))
	(=>	(and true
			(diseqNat_514 x_53341 x_53342)
			(plus_133 x_53341 x_53276 y_2095)
			(plus_133 x_53342 y_2095 x_53276))
		false)))
(assert (forall ((x_53343 Nat_514) (x_53277 Nat_514))
	(=>	(and true
			(diseqNat_514 x_53343 x_53277)
			(plus_133 x_53343 x_53277 zero_140))
		false)))
(assert (forall ((x_53344 Nat_514) (x_53278 Nat_514))
	(=>	(and true
			(diseqNat_514 x_53344 x_53278)
			(plus_133 x_53344 zero_140 x_53278))
		false)))
(assert (forall ((x_53345 list_216) (x_53346 Nat_514) (x_53347 Nat_514) (x_53279 Nat_514) (xs_600 list_216))
	(=>	(and true
			(diseqNat_514 x_53346 x_53347)
			(msorttd_5 x_53345 xs_600)
			(count_35 x_53346 x_53279 x_53345)
			(count_35 x_53347 x_53279 xs_600))
		false)))
(check-sat)
